GLPSOL--GLPK LP/MIP Solver 5.0
Parameter(s) specified in the command line:
 --lp ../modeles/10_319.lp --log 10_319.log
Reading problem data from '../modeles/10_319.lp'...
3231 rows, 6400 columns, 22380 non-zeros
3190 integer variables, all of which are binary
9647 lines were read
GLPK Integer Optimizer 5.0
3231 rows, 6400 columns, 22380 non-zeros
3190 integer variables, all of which are binary
Preprocessing...
3140 constraint coefficient(s) were reduced
3231 rows, 6390 columns, 22370 non-zeros
3190 integer variables, all of which are binary
Scaling...
 A: min|aij| =  3.931e-05  max|aij| =  4.000e+00  ratio =  1.018e+05
GM: min|aij| =  5.599e-02  max|aij| =  1.786e+01  ratio =  3.190e+02
EQ: min|aij| =  3.135e-03  max|aij| =  1.000e+00  ratio =  3.190e+02
2N: min|aij| =  2.516e-03  max|aij| =  1.752e+00  ratio =  6.964e+02
Constructing initial basis...
Size of triangular part is 3231
Solving LP relaxation...
GLPK Simplex Optimizer 5.0
3231 rows, 6390 columns, 22370 non-zeros
      0: obj =   2.000000000e+01 inf =   4.950e+01 (21)
    189: obj =   4.998083726e-01 inf =   0.000e+00 (0)
*   564: obj =  -3.161771160e+00 inf =   1.867e-14 (0)
OPTIMAL LP SOLUTION FOUND
Integer optimization begins...
Long-step dual simplex will be used
+   564: mip =     not found yet >=              -inf        (1; 0)
+   574: >>>>>  -3.161771160e+00 >=  -3.161771160e+00 < 0.1% (7; 0)
+   574: mip =  -3.161771160e+00 >=     tree is empty   0.0% (0; 13)
INTEGER OPTIMAL SOLUTION FOUND
Time used:   0.1 secs
Memory used: 9.3 Mb (9725952 bytes)
